c colouring generated by benchmark framework
p edge 500 3555
v 1 2
v 2 6
v 3 1
v 4 0
v 5 3
v 6 6
v 7 0
v 8 5
v 9 10
v 10 8
v 11 7
v 12 2
v 13 1
v 14 1
v 15 6
v 16 6
v 17 9
v 18 3
v 19 4
v 20 3
v 21 5
v 22 11
v 23 12
v 24 4
v 25 12
v 26 11
v 27 6
v 28 11
v 29 11
v 30 1
v 31 0
v 32 12
v 33 10
v 34 9
v 35 11
v 36 2
v 37 0
v 38 4
v 39 4
v 40 8
v 41 5
v 42 7
v 43 6
v 44 3
v 45 2
v 46 6
v 47 2
v 48 0
v 49 7
v 50 4
v 51 2
v 52 8
v 53 1
v 54 4
v 55 1
v 56 10
v 57 7
v 58 11
v 59 12
v 60 8
v 61 5
v 62 11
v 63 2
v 64 8
v 65 3
v 66 0
v 67 12
v 68 8
v 69 12
v 70 12
v 71 3
v 72 6
v 73 9
v 74 7
v 75 12
v 76 6
v 77 11
v 78 0
v 79 6
v 80 12
v 81 5
v 82 1
v 83 2
v 84 12
v 85 4
v 86 2
v 87 4
v 88 8
v 89 1
v 90 1
v 91 2
v 92 8
v 93 6
v 94 0
v 95 2
v 96 1
v 97 3
v 98 12
v 99 6
v 100 9
v 101 10
v 102 11
v 103 5
v 104 10
v 105 8
v 106 11
v 107 7
v 108 8
v 109 4
v 110 0
v 111 4
v 112 1
v 113 10
v 114 0
v 115 10
v 116 4
v 117 9
v 118 9
v 119 11
v 120 8
v 121 2
v 122 4
v 123 2
v 124 7
v 125 9
v 126 7
v 127 2
v 128 8
v 129 4
v 130 5
v 131 7
v 132 5
v 133 11
v 134 4
v 135 8
v 136 0
v 137 7
v 138 7
v 139 5
v 140 12
v 141 11
v 142 2
v 143 1
v 144 9
v 145 0
v 146 12
v 147 2
v 148 8
v 149 6
v 150 2
v 151 4
v 152 12
v 153 3
v 154 3
v 155 6
v 156 7
v 157 0
v 158 9
v 159 2
v 160 10
v 161 6
v 162 7
v 163 3
v 164 10
v 165 11
v 166 9
v 167 9
v 168 1
v 169 6
v 170 3
v 171 9
v 172 1
v 173 9
v 174 9
v 175 11
v 176 2
v 177 4
v 178 12
v 179 6
v 180 12
v 181 1
v 182 11
v 183 9
v 184 1
v 185 2
v 186 1
v 187 11
v 188 3
v 189 6
v 190 0
v 191 5
v 192 7
v 193 12
v 194 11
v 195 4
v 196 0
v 197 7
v 198 8
v 199 2
v 200 12
v 201 10
v 202 9
v 203 5
v 204 0
v 205 7
v 206 2
v 207 11
v 208 0
v 209 8
v 210 11
v 211 10
v 212 12
v 213 3
v 214 7
v 215 5
v 216 4
v 217 5
v 218 2
v 219 6
v 220 11
v 221 8
v 222 4
v 223 5
v 224 7
v 225 6
v 226 6
v 227 5
v 228 12
v 229 10
v 230 6
v 231 9
v 232 6
v 233 12
v 234 4
v 235 11
v 236 10
v 237 5
v 238 9
v 239 4
v 240 3
v 241 3
v 242 10
v 243 7
v 244 12
v 245 10
v 246 5
v 247 3
v 248 1
v 249 6
v 250 10
v 251 12
v 252 11
v 253 8
v 254 1
v 255 11
v 256 12
v 257 12
v 258 9
v 259 4
v 260 8
v 261 0
v 262 6
v 263 10
v 264 1
v 265 7
v 266 0
v 267 12
v 268 10
v 269 1
v 270 5
v 271 12
v 272 8
v 273 12
v 274 9
v 275 2
v 276 4
v 277 0
v 278 1
v 279 6
v 280 3
v 281 6
v 282 4
v 283 10
v 284 10
v 285 0
v 286 0
v 287 12
v 288 2
v 289 10
v 290 2
v 291 5
v 292 7
v 293 1
v 294 2
v 295 5
v 296 1
v 297 7
v 298 5
v 299 10
v 300 5
v 301 11
v 302 9
v 303 10
v 304 2
v 305 4
v 306 5
v 307 0
v 308 3
v 309 11
v 310 1
v 311 5
v 312 11
v 313 6
v 314 7
v 315 4
v 316 12
v 317 4
v 318 8
v 319 2
v 320 7
v 321 6
v 322 4
v 323 9
v 324 0
v 325 12
v 326 9
v 327 4
v 328 5
v 329 12
v 330 6
v 331 4
v 332 8
v 333 12
v 334 10
v 335 3
v 336 3
v 337 9
v 338 1
v 339 10
v 340 1
v 341 12
v 342 7
v 343 6
v 344 2
v 345 5
v 346 8
v 347 2
v 348 3
v 349 4
v 350 2
v 351 8
v 352 8
v 353 9
v 354 12
v 355 9
v 356 1
v 357 2
v 358 11
v 359 7
v 360 7
v 361 12
v 362 2
v 363 9
v 364 7
v 365 7
v 366 1
v 367 2
v 368 8
v 369 0
v 370 9
v 371 10
v 372 3
v 373 1
v 374 7
v 375 7
v 376 5
v 377 9
v 378 1
v 379 9
v 380 6
v 381 8
v 382 10
v 383 0
v 384 7
v 385 8
v 386 11
v 387 8
v 388 2
v 389 0
v 390 5
v 391 0
v 392 7
v 393 1
v 394 9
v 395 10
v 396 7
v 397 10
v 398 3
v 399 4
v 400 3
v 401 12
v 402 8
v 403 10
v 404 3
v 405 5
v 406 4
v 407 4
v 408 8
v 409 5
v 410 6
v 411 11
v 412 11
v 413 7
v 414 11
v 415 6
v 416 0
v 417 11
v 418 12
v 419 9
v 420 8
v 421 5
v 422 2
v 423 6
v 424 3
v 425 10
v 426 4
v 427 7
v 428 1
v 429 7
v 430 3
v 431 2
v 432 4
v 433 9
v 434 0
v 435 11
v 436 5
v 437 2
v 438 8
v 439 10
v 440 4
v 441 9
v 442 9
v 443 1
v 444 10
v 445 5
v 446 11
v 447 3
v 448 6
v 449 4
v 450 9
v 451 10
v 452 9
v 453 8
v 454 0
v 455 12
v 456 3
v 457 2
v 458 5
v 459 12
v 460 8
v 461 1
v 462 6
v 463 6
v 464 6
v 465 1
v 466 8
v 467 2
v 468 9
v 469 5
v 470 3
v 471 11
v 472 1
v 473 11
v 474 12
v 475 0
v 476 2
v 477 11
v 478 0
v 479 3
v 480 5
v 481 10
v 482 5
v 483 5
v 484 3
v 485 1
v 486 12
v 487 3
v 488 10
v 489 8
v 490 10
v 491 12
v 492 2
v 493 7
v 494 6
v 495 10
v 496 6
v 497 10
v 498 2
v 499 1
v 500 3
